NAME: ACTUAL_TOURS/amz2789
TYPE: TOUR
COMMENT: RouteID_97ce61f2-b981-429d-997e-520e10e40b84
DIMENSION: 100
TOUR_SECTION
90
25
33
79
7
49
4
21
71
97
68
8
45
63
35
1
11
60
64
30
66
17
74
89
18
70
55
5
26
16
12
54
43
91
40
37
44
50
36
92
6
83
85
81
84
42
93
78
67
31
94
9
20
29
34
75
72
62
58
28
48
19
23
80
2
32
76
10
57
59
41
46
47
87
73
52
22
69
95
98
96
15
86
82
14
38
13
39
100
27
3
53
99
65
24
61
77
88
51
56
-1
EOF
